78 47 
28 3 
6 57 
52 6 
15 65 
96 45 
61 1 
83 80 
47 75 
10 90 
55 14 
42 57 
12 54 
1 76 
25 53 
16 3 
52 45 
6 58 
2 10 
16 17 
75 64 
14 36 
65 98 
69 64 
25 79 
6 32 
93 48 
89 58 
54 43 
34 79 
